projected/problems_b25_r0_d7_m100_s666/_DIMACS/b25_d7_r0_s666_073.cnf
p cnf 225 346 25
c p show 1 2 3 4 5 6 7 8 9 10 11 12 13 14 15 16 17 18 19 20 21 22 23 24 25
-203 -1 9 0
-204 -9 1 0
-205 204 0
-205 203 0
-206 8 0
-206 -8 0
-207 206 0
-207 205 0
-208 19 0
-208 -24 0
-209 1 0
-209 -25 0
-210 209 208 0
-211 -1 25 0
-212 -19 24 0
-213 212 211 0
-214 213 0
-214 210 0
-215 214 207 0
-216 6 -3 0
-217 -13 -14 0
-218 14 13 0
-219 218 0
-219 217 0
-220 219 0
-220 216 0
-221 -24 0
-221 -18 0
-222 7 -10 0
-223 222 0
-223 221 0
-224 223 0
-224 220 0
-225 24 18 0
-26 -7 0
-26 10 0
-27 26 225 0
-28 -6 0
-28 3 0
-29 13 0
-29 14 0
-30 -14 0
-30 -13 0
-31 30 29 0
-32 31 28 0
-33 32 0
-33 27 0
-34 33 224 0
-35 34 215 0
-36 -19 0
-36 -3 0
-37 -3 -16 0
-38 37 36 0
-39 4 0
-39 -16 0
-40 -3 0
-40 23 0
-41 40 0
-41 39 0
-42 41 0
-42 38 0
-43 11 0
-43 16 0
-44 -10 -9 0
-45 44 0
-45 43 0
-46 -15 -24 0
-47 24 15 0
-48 47 0
-48 46 0
-49 -19 15 0
-50 49 48 0
-51 19 0
-51 -15 0
-52 15 0
-52 24 0
-53 -24 0
-53 -15 0
-54 53 52 0
-55 54 51 0
-56 55 0
-56 50 0
-57 56 45 0
-58 57 42 0
-59 58 0
-59 35 0
-60 9 0
-60 25 0
-61 -18 0
-61 -20 0
-62 61 60 0
-63 -21 -13 0
-64 -18 0
-64 20 0
-65 64 63 0
-66 65 62 0
-67 16 21 0
-68 -5 -6 0
-69 68 0
-69 67 0
-70 -22 -18 0
-71 20 0
-71 -17 0
-72 71 0
-72 70 0
-73 72 0
-73 69 0
-74 73 66 0
-75 -5 0
-76 -11 0
-76 4 0
-77 76 75 0
-78 -12 13 0
-79 21 13 0
-80 79 78 0
-81 -21 0
-81 -13 0
-82 12 0
-82 -13 0
-83 82 81 0
-84 83 0
-84 80 0
-85 84 0
-85 77 0
-86 7 0
-86 3 0
-87 13 -12 0
-88 87 86 0
-89 -5 0
-89 -12 0
-90 13 -23 0
-91 90 89 0
-92 91 0
-92 88 0
-93 92 0
-93 85 0
-94 -7 -3 0
-95 -13 0
-95 12 0
-96 95 0
-96 94 0
-97 5 12 0
-98 -13 0
-98 23 0
-99 98 0
-99 97 0
-100 99 96 0
-101 5 0
-102 11 -4 0
-103 102 0
-103 101 0
-104 81 0
-104 82 0
-105 78 0
-105 79 0
-106 105 104 0
-107 106 103 0
-108 107 0
-108 100 0
-109 108 93 0
-110 109 0
-110 74 0
-111 110 59 0
-112 -15 0
-112 15 0
-113 19 -10 0
-114 113 112 0
-115 -15 19 0
-116 20 0
-116 13 0
-117 116 0
-117 115 0
-118 117 114 0
-119 4 -19 0
-120 23 16 0
-121 120 0
-121 119 0
-122 7 -6 0
-123 -1 0
-123 -5 0
-124 123 122 0
-125 1 5 0
-126 -7 0
-126 6 0
-127 126 125 0
-128 127 0
-128 124 0
-129 128 0
-129 121 0
-130 129 118 0
-131 24 0
-131 -17 0
-132 -25 0
-132 2 0
-133 132 0
-133 131 0
-134 25 -2 0
-135 -24 17 0
-136 135 0
-136 134 0
-137 136 133 0
-138 14 0
-138 -18 0
-139 18 0
-139 -14 0
-140 139 138 0
-141 -14 0
-141 25 0
-142 -25 0
-142 14 0
-143 142 141 0
-144 143 140 0
-145 144 0
-145 137 0
-146 -16 3 0
-147 18 0
-147 -20 0
-148 147 146 0
-149 22 0
-149 13 0
-150 -23 -16 0
-151 16 23 0
-152 151 0
-152 150 0
-153 152 149 0
-154 153 0
-154 148 0
-155 154 145 0
-156 155 130 0
-157 -16 7 0
-158 23 0
-158 18 0
-159 158 157 0
-160 -14 -4 0
-161 5 0
-161 -3 0
-162 161 0
-162 160 0
-163 162 0
-163 159 0
-164 -13 -20 0
-165 16 0
-165 -24 0
-166 165 0
-166 164 0
-167 -21 -15 0
-168 1 -7 0
-169 168 167 0
-170 -1 0
-170 7 0
-171 21 0
-171 15 0
-172 171 170 0
-173 172 0
-173 169 0
-174 173 166 0
-175 174 163 0
-176 -13 0
-176 -19 0
-177 18 -1 0
-178 177 176 0
-179 -4 0
-179 -22 0
-180 14 0
-180 19 0
-181 180 179 0
-182 -14 -19 0
-183 4 22 0
-184 183 182 0
-185 184 0
-185 181 0
-186 185 0
-186 178 0
-187 15 0
-187 1 0
-188 -1 0
-188 -15 0
-189 188 187 0
-190 22 3 0
-191 190 0
-191 189 0
-192 2 0
-192 -8 0
-193 -8 -25 0
-194 193 192 0
-195 8 0
-195 25 0
-196 -2 8 0
-197 196 195 0
-198 197 0
-198 194 0
-199 198 0
-199 191 0
-200 199 186 0
-201 200 0
-201 175 0
-202 201 156 0
202 0
111 0
-209 -211 0
-211 -209 0
-208 -212 0
-221 -225 0
-26 -222 0
-222 -26 0
-223 -27 0
-28 -216 0
-216 -28 0
-219 -31 0
-220 -32 0
-32 -220 0
-51 -49 0
-48 -54 0
-86 -94 0
-87 -95 0
-88 -96 0
-96 -88 0
-89 -97 0
-97 -89 0
-98 -90 0
-99 -91 0
-100 -92 0
-92 -100 0
-75 -101 0
-101 -75 0
-76 -102 0
-102 -76 0
-103 -77 0
-77 -103 0
-81 -79 0
-78 -82 0
-84 -106 0
-85 -107 0
-107 -85 0
-125 -123 0
-122 -126 0
-132 -134 0
-131 -135 0
-135 -131 0
-168 -170 0
-170 -168 0
-167 -171 0
-182 -180 0
-179 -183 0
-195 -193 0
-192 -196 0
