projected/problems_b25_r0_d7_m100_s666/b25_d7_r0_s666_073.smt2
(set-logic QF_UF)
(declare-fun A0 () Bool)
(declare-fun A1 () Bool)
(declare-fun A2 () Bool)
(declare-fun A3 () Bool)
(declare-fun A4 () Bool)
(declare-fun A5 () Bool)
(declare-fun A6 () Bool)
(declare-fun A7 () Bool)
(declare-fun A8 () Bool)
(declare-fun A9 () Bool)
(declare-fun A10 () Bool)
(declare-fun A11 () Bool)
(declare-fun A12 () Bool)
(declare-fun A13 () Bool)
(declare-fun A14 () Bool)
(declare-fun A15 () Bool)
(declare-fun A16 () Bool)
(declare-fun A17 () Bool)
(declare-fun A18 () Bool)
(declare-fun A19 () Bool)
(declare-fun A20 () Bool)
(declare-fun A21 () Bool)
(declare-fun A22 () Bool)
(declare-fun A23 () Bool)
(declare-fun A24 () Bool)
(assert (let ((.def_0 (= A8 A0))) (let ((.def_1 (not A7))) (let ((.def_2 (and A7 .def_1))) (let ((.def_3 (and .def_2 .def_0))) (let ((.def_4 (not A24))) (let ((.def_5 (and A0 .def_4))) (let ((.def_6 (not .def_5))) (let ((.def_7 (not A23))) (let ((.def_8 (and A18 .def_7))) (let ((.def_9 (= .def_8 .def_6))) (let ((.def_10 (or .def_9 .def_3))) (let ((.def_11 (not A17))) (let ((.def_12 (and .def_7 .def_11))) (let ((.def_13 (not A6))) (let ((.def_14 (and .def_13 A9))) (let ((.def_15 (not .def_14))) (let ((.def_16 (and .def_15 .def_12))) (let ((.def_17 (not A5))) (let ((.def_18 (and .def_17 A2))) (let ((.def_19 (not .def_18))) (let ((.def_20 (not A13))) (let ((.def_21 (= .def_20 A12))) (let ((.def_22 (and .def_21 .def_19))) (let ((.def_23 (not .def_22))) (let ((.def_24 (= .def_23 .def_16))) (let ((.def_25 (not .def_24))) (let ((.def_26 (or .def_25 .def_10))) (let ((.def_27 (or A18 A2))) (let ((.def_28 (not .def_27))) (let ((.def_29 (and A2 A15))) (let ((.def_30 (not .def_29))) (let ((.def_31 (or .def_30 .def_28))) (let ((.def_32 (not .def_31))) (let ((.def_33 (not A3))) (let ((.def_34 (or .def_33 A15))) (let ((.def_35 (not .def_34))) (let ((.def_36 (not A22))) (let ((.def_37 (or A2 .def_36))) (let ((.def_38 (not .def_37))) (let ((.def_39 (and .def_38 .def_35))) (let ((.def_40 (not .def_39))) (let ((.def_41 (or .def_40 .def_32))) (let ((.def_42 (and A10 A15))) (let ((.def_43 (not A8))) (let ((.def_44 (not A9))) (let ((.def_45 (or .def_44 .def_43))) (let ((.def_46 (and .def_45 .def_42))) (let ((.def_47 (not .def_46))) (let ((.def_48 (not A14))) (let ((.def_49 (and A18 .def_48))) (let ((.def_50 (= .def_7 A14))) (let ((.def_51 (= .def_50 .def_49))) (let ((.def_52 (not .def_51))) (let ((.def_53 (and .def_52 .def_47))) (let ((.def_54 (and .def_53 .def_41))) (let ((.def_55 (not .def_54))) (let ((.def_56 (and .def_55 .def_26))) (let ((.def_57 (not .def_56))) (let ((.def_58 (and A8 A24))) (let ((.def_59 (not .def_58))) (let ((.def_60 (or A17 A19))) (let ((.def_61 (and .def_60 .def_59))) (let ((.def_62 (not A12))) (let ((.def_63 (not A20))) (let ((.def_64 (or .def_63 .def_62))) (let ((.def_65 (and .def_11 A19))) (let ((.def_66 (or .def_65 .def_64))) (let ((.def_67 (not .def_66))) (let ((.def_68 (and .def_67 .def_61))) (let ((.def_69 (not A15))) (let ((.def_70 (and .def_69 .def_63))) (let ((.def_71 (and A4 A5))) (let ((.def_72 (or .def_71 .def_70))) (let ((.def_73 (not A21))) (let ((.def_74 (or .def_73 .def_11))) (let ((.def_75 (not A16))) (let ((.def_76 (and A19 .def_75))) (let ((.def_77 (and .def_76 .def_74))) (let ((.def_78 (not .def_77))) (let ((.def_79 (or .def_78 .def_72))) (let ((.def_80 (and .def_79 .def_68))) (let ((.def_81 (not .def_80))) (let ((.def_82 (and A6 A2))) (let ((.def_83 (not A11))) (let ((.def_84 (or A12 .def_83))) (let ((.def_85 (or .def_84 .def_82))) (let ((.def_86 (not .def_85))) (let ((.def_87 (not A4))) (let ((.def_88 (and .def_87 .def_83))) (let ((.def_89 (not .def_88))) (let ((.def_90 (and .def_62 A22))) (let ((.def_91 (and .def_90 .def_89))) (let ((.def_92 (or .def_91 .def_86))) (let ((.def_93 (not .def_92))) (let ((.def_94 (or .def_87 .def_87))) (let ((.def_95 (not .def_94))) (let ((.def_96 (not A10))) (let ((.def_97 (and .def_96 A3))) (let ((.def_98 (not .def_97))) (let ((.def_99 (and .def_98 .def_95))) (let ((.def_100 (not .def_99))) (let ((.def_101 (and .def_63 .def_62))) (let ((.def_102 (or .def_83 A12))) (let ((.def_103 (= .def_102 .def_101))) (let ((.def_104 (and .def_103 .def_100))) (let ((.def_105 (not .def_104))) (let ((.def_106 (= .def_105 .def_93))) (let ((.def_107 (not .def_106))) (let ((.def_108 (and .def_107 .def_81))) (let ((.def_109 (not .def_108))) (let ((.def_110 (and .def_109 .def_57))) (let ((.def_111 (and .def_48 A14))) (let ((.def_112 (not .def_111))) (let ((.def_113 (not A18))) (let ((.def_114 (and .def_113 A9))) (let ((.def_115 (and .def_114 .def_112))) (let ((.def_116 (or .def_48 A18))) (let ((.def_117 (not .def_116))) (let ((.def_118 (not A19))) (let ((.def_119 (or .def_118 .def_62))) (let ((.def_120 (or .def_119 .def_117))) (let ((.def_121 (and .def_120 .def_115))) (let ((.def_122 (or A3 .def_113))) (let ((.def_123 (not .def_122))) (let ((.def_124 (and .def_36 .def_69))) (let ((.def_125 (or .def_124 .def_123))) (let ((.def_126 (or A0 A4))) (let ((.def_127 (or A6 .def_17))) (let ((.def_128 (= .def_127 .def_126))) (let ((.def_129 (not .def_128))) (let ((.def_130 (or .def_129 .def_125))) (let ((.def_131 (and .def_130 .def_121))) (let ((.def_132 (not .def_131))) (let ((.def_133 (and .def_4 A1))) (let ((.def_134 (and A23 .def_75))) (let ((.def_135 (not .def_134))) (let ((.def_136 (= .def_135 .def_133))) (let ((.def_137 (not .def_136))) (let ((.def_138 (= A17 A13))) (let ((.def_139 (= .def_4 .def_20))) (let ((.def_140 (and .def_139 .def_138))) (let ((.def_141 (not .def_140))) (let ((.def_142 (and .def_141 .def_137))) (let ((.def_143 (or .def_69 A2))) (let ((.def_144 (or .def_11 A19))) (let ((.def_145 (not .def_144))) (let ((.def_146 (or .def_145 .def_143))) (let ((.def_147 (not .def_146))) (let ((.def_148 (and A21 A12))) (let ((.def_149 (not .def_148))) (let ((.def_150 (= .def_69 A22))) (let ((.def_151 (not .def_150))) (let ((.def_152 (and .def_151 .def_149))) (let ((.def_153 (or .def_152 .def_147))) (let ((.def_154 (not .def_153))) (let ((.def_155 (or .def_154 .def_142))) (let ((.def_156 (or .def_155 .def_132))) (let ((.def_157 (or .def_69 A6))) (let ((.def_158 (not .def_157))) (let ((.def_159 (and A22 A17))) (let ((.def_160 (not .def_159))) (let ((.def_161 (and .def_160 .def_158))) (let ((.def_162 (not .def_161))) (let ((.def_163 (or .def_20 .def_33))) (let ((.def_164 (not .def_163))) (let ((.def_165 (not A2))) (let ((.def_166 (and A4 .def_165))) (let ((.def_167 (not .def_166))) (let ((.def_168 (or .def_167 .def_164))) (let ((.def_169 (not .def_168))) (let ((.def_170 (and .def_169 .def_162))) (let ((.def_171 (not .def_170))) (let ((.def_172 (or .def_62 .def_118))) (let ((.def_173 (and A15 .def_7))) (let ((.def_174 (and .def_173 .def_172))) (let ((.def_175 (not .def_174))) (let ((.def_176 (or A0 .def_13))) (let ((.def_177 (not .def_176))) (let ((.def_178 (or .def_63 .def_48))) (let ((.def_179 (= .def_178 .def_177))) (let ((.def_180 (not .def_179))) (let ((.def_181 (and .def_180 .def_175))) (let ((.def_182 (and .def_181 .def_171))) (let ((.def_183 (and .def_62 .def_113))) (let ((.def_184 (and .def_11 A0))) (let ((.def_185 (not .def_184))) (let ((.def_186 (or .def_185 .def_183))) (let ((.def_187 (not .def_186))) (let ((.def_188 (or .def_20 .def_113))) (let ((.def_189 (and .def_33 .def_73))) (let ((.def_190 (= .def_189 .def_188))) (let ((.def_191 (not .def_190))) (let ((.def_192 (or .def_191 .def_187))) (let ((.def_193 (not .def_192))) (let ((.def_194 (not A0))) (let ((.def_195 (= .def_194 A14))) (let ((.def_196 (and .def_73 .def_165))) (let ((.def_197 (or .def_196 .def_195))) (let ((.def_198 (not .def_197))) (let ((.def_199 (and A7 A24))) (let ((.def_200 (and A1 .def_1))) (let ((.def_201 (= .def_200 .def_199))) (let ((.def_202 (and .def_201 .def_198))) (let ((.def_203 (or .def_202 .def_193))) (let ((.def_204 (not .def_203))) (let ((.def_205 (or .def_204 .def_182))) (let ((.def_206 (not .def_205))) (let ((.def_207 (or .def_206 .def_156))) (let ((.def_208 (not .def_207))) (let ((.def_209 (or .def_208 .def_110))) (let ((.def_210 (not .def_209))) .def_210))))))))))))))))))))))))))))))))))))))))))))))))))))))))))))))))))))))))))))))))))))))))))))))))))))))))))))))))))))))))))))))))))))))))))))))))))))))))))))))))))))))))))))))))))))))))))))))))))))))))))))))))))))
(check-sat)
